n_res = 4;
rc = [ 28, 33, 24, 26 ];
n_tasks = 30;
d = [ 6, 3, 9, 3, 8, 3, 1, 10, 8, 4, 9, 4, 9, 8, 5, 7, 2, 9, 9, 10, 9, 3, 8, 7, 4, 4, 2, 9, 9, 9 ];
rr = [| 4, 7, 9, 2, 10, 4, 8, 7, 8, 9, 1, 9, 5, 1, 6, 3, 9, 9, 6, 4, 10, 10, 7, 3, 3, 2, 5, 10, 8, 9
      | 5, 9, 10, 9, 10, 1, 7, 2, 4, 5, 5, 10, 1, 6, 8, 8, 10, 10, 10, 5, 10, 8, 10, 5, 8, 2, 9, 3, 2, 10
      | 10, 1, 6, 1, 3, 8, 9, 2, 8, 9, 10, 9, 3, 4, 10, 3, 7, 4, 5, 2, 5, 8, 8, 7, 5, 7, 9, 1, 5, 5
      | 9, 3, 5, 4, 8, 6, 8, 3, 7, 6, 3, 7, 8, 8, 7, 7, 7, 6, 9, 2, 4, 9, 8, 9, 7, 6, 7, 6, 1, 7 |];
suc = [ { 2 }, 
        { 3 }, 
        { 4 }, 
        { 5 }, 
        { 6 }, 
        { 7 }, 
        { 8 }, 
        { 9 }, 
        { 10 }, 
        { 11 }, 
        { 12 }, 
        { 13 }, 
        { 14 }, 
        { 15 }, 
        { 16 }, 
        { 17 }, 
        { 18 }, 
        { 19 }, 
        { 20 }, 
        { 21 }, 
        { 22 }, 
        { 23 }, 
        { 24 }, 
        { 25 }, 
        { 26 }, 
        { 27 }, 
        { 28 }, 
        { 29 }, 
        { 30 }, 
        {  }]; 
